gen	cost
1	1454
2	1432
3	1408
4	1397
5	1379
6	1370
7	1355
8	1341
9	1334
10	1326
11	1320
12	1317
13	1306
14	1302
15	1299
16	1290
17	1281
18	1271
19	1254
20	1247
21	1244
22	1234
23	1232
24	1232
25	1220
26	1212
27	1204
28	1198
29	1197
30	1197
31	1193
32	1192
33	1191
34	1187
35	1181
36	1177
37	1177
38	1177
39	1176
40	1176
41	1176
42	1176
43	1176
44	1174
45	1174
46	1174
47	1174
48	1174
49	1174
50	1172

